
%FILE DATA:	Soccer Computational Problem for MiniZinc Models	%
%AUTHOR:	Jack Wall	%
%CONTACT:  	116397063@umail.ucc.ie			%
%LAST UPDATE:	03/02/2020, 18:19:35						%
%DESCRIPTION: 	88 games played with 22 games left				%


n=11; %number of teams

%Games to play
games=[|5,10|8,1|1,5|6,2|11,4|9,7|3,10|8,4|1,8|9,5|9,8|3,6|2,11|6,1|4,6|5,11|11,6|3,2|3,7|10,5|2,7|7,11|];

%Initial points
iPoints=[23,24,24,17,20,21,26,24,22,21,21];

%POSITION CONSTRAINTS
% [|teamID, operator, position|...]
% operators index:
%  1 for =  operator
%  2 for >  operator
%  3 for >= operator
%  4 for <  operator
%  5 for <= operator
positionConstraints=[|7,1,1|2,4,3|11,4,4|1,5,4|];